(set-info :smt-lib-version 2.6)
(set-info :category "crafted")
(set-logic QF_FF)
(define-sort FF0 () (_ FiniteField 52435875175126190479447740508185965837690552500527637822603658699938581184513))
(declare-fun b () Bool)
(declare-fun f () Bool)
(declare-fun d () Bool)
(declare-fun e () Bool)
(declare-fun c () Bool)
(declare-fun a () Bool)
(declare-fun return_n3 () FF0)
(declare-fun mul_n109 () FF0)
(declare-fun mul_n75 () FF0)
(declare-fun mul_n108 () FF0)
(declare-fun mul_n76 () FF0)
(declare-fun mul_n107 () FF0)
(declare-fun mul_n90 () FF0)
(declare-fun mul_n106 () FF0)
(declare-fun mul_n67 () FF0)
(declare-fun a_n6 () FF0)
(declare-fun mul_n92 () FF0)
(declare-fun mul_n91 () FF0)
(declare-fun mul_n87 () FF0)
(declare-fun mul_n77 () FF0)
(declare-fun mul_n93 () FF0)
(declare-fun mul_n48 () FF0)
(declare-fun mul_n105 () FF0)
(declare-fun mul_n94 () FF0)
(declare-fun mul_n104 () FF0)
(declare-fun mul_n64 () FF0)
(declare-fun mul_n96 () FF0)
(declare-fun mul_n103 () FF0)
(declare-fun mul_n100 () FF0)
(declare-fun mul_n102 () FF0)
(declare-fun mul_n86 () FF0)
(declare-fun mul_n65 () FF0)
(declare-fun mul_n101 () FF0)
(declare-fun mul_n97 () FF0)
(declare-fun mul_n34 () FF0)
(declare-fun mul_n89 () FF0)
(declare-fun mul_n43 () FF0)
(declare-fun mul_n99 () FF0)
(declare-fun mul_n62 () FF0)
(declare-fun mul_n98 () FF0)
(declare-fun mul_n95 () FF0)
(declare-fun mul_n73 () FF0)
(declare-fun mul_n68 () FF0)
(declare-fun mul_n83 () FF0)
(declare-fun mul_n36 () FF0)
(declare-fun b_n4 () FF0)
(declare-fun mul_n8 () FF0)
(declare-fun mul_n33 () FF0)
(declare-fun mul_n88 () FF0)
(declare-fun mul_n23 () FF0)
(declare-fun f_n5 () FF0)
(declare-fun mul_n24 () FF0)
(declare-fun mul_n82 () FF0)
(declare-fun mul_n85 () FF0)
(declare-fun d_n1 () FF0)
(declare-fun mul_n7 () FF0)
(declare-fun mul_n37 () FF0)
(declare-fun mul_n22 () FF0)
(declare-fun mul_n28 () FF0)
(declare-fun mul_n44 () FF0)
(declare-fun mul_n81 () FF0)
(declare-fun e_n0 () FF0)
(declare-fun mul_n80 () FF0)
(declare-fun mul_n79 () FF0)
(declare-fun mul_n35 () FF0)
(declare-fun mul_n78 () FF0)
(declare-fun mul_n53 () FF0)
(declare-fun c_n2 () FF0)
(declare-fun mul_n71 () FF0)
(declare-fun mul_n29 () FF0)
(declare-fun mul_n74 () FF0)
(declare-fun mul_n59 () FF0)
(declare-fun mul_n72 () FF0)
(declare-fun mul_n70 () FF0)
(declare-fun mul_n39 () FF0)
(declare-fun mul_n69 () FF0)
(declare-fun mul_n9 () FF0)
(declare-fun mul_n45 () FF0)
(declare-fun mul_n66 () FF0)
(declare-fun mul_n19 () FF0)
(declare-fun mul_n20 () FF0)
(declare-fun mul_n12 () FF0)
(declare-fun mul_n63 () FF0)
(declare-fun mul_n32 () FF0)
(declare-fun mul_n61 () FF0)
(declare-fun mul_n60 () FF0)
(declare-fun mul_n58 () FF0)
(declare-fun mul_n57 () FF0)
(declare-fun mul_n56 () FF0)
(declare-fun mul_n55 () FF0)
(declare-fun mul_n54 () FF0)
(declare-fun mul_n52 () FF0)
(declare-fun mul_n51 () FF0)
(declare-fun mul_n50 () FF0)
(declare-fun mul_n49 () FF0)
(declare-fun mul_n47 () FF0)
(declare-fun mul_n46 () FF0)
(declare-fun mul_n42 () FF0)
(declare-fun mul_n41 () FF0)
(declare-fun mul_n40 () FF0)
(declare-fun mul_n38 () FF0)
(declare-fun mul_n31 () FF0)
(declare-fun mul_n30 () FF0)
(declare-fun mul_n27 () FF0)
(declare-fun mul_n26 () FF0)
(declare-fun mul_n25 () FF0)
(declare-fun mul_n21 () FF0)
(declare-fun mul_n18 () FF0)
(declare-fun mul_n17 () FF0)
(declare-fun mul_n16 () FF0)
(declare-fun mul_n15 () FF0)
(declare-fun mul_n14 () FF0)
(declare-fun mul_n13 () FF0)
(declare-fun mul_n11 () FF0)
(declare-fun mul_n10 () FF0)
(assert 
  (let ((let0 b))
  (let ((let1 f))
  (let ((let2 d))
  (let ((let3 e))
  (let ((let4 c))
  (let ((let5 (ite let4 let3 let2)))
  (let ((let6 (ite let5 let1 let0)))
  (let ((let7 a))
  (let ((let8 (ite let7 let2 let0)))
  (let ((let9 (or let1 let8 let3 let7)))
  (let ((let10 (and let8 let5 let9 let6 let9 let7 let9 let4)))
  (let ((let11 (ite let10 let3 let10)))
  (let ((let12 (not let1)))
  (let ((let13 (or let12 let11 let6)))
  (let ((let14 (=> let6 let11)))
  (let ((let15 (= let12 let14)))
  (let ((let16 (not let2)))
  (let ((let17 (or let16 let16 let15 let5 let14)))
  (let ((let18 (ite let0 let12 let13)))
  (let ((let19 (and let18 let17 let10 let13)))
  (let ((let20 (or let14 let19)))
  (let ((let21 (and let20 let13)))
  (let ((let22 (and let10 let20)))
  (let ((let23 (=> let12 let17)))
  (let ((let24 (= let5 let23)))
  (let ((let25 (=> let19 let24)))
  (let ((let26 (ite let25 let22 let21)))
  (let ((let27 (not let7)))
  (let ((let28 (and let18 let4 let2 let27 let15)))
  (let ((let29 (= let28 let17)))
  (let ((let30 (= let8 let29)))
  (let ((let31 (or let18 let27 let11 let8)))
  (let ((let32 (not let31)))
  (let ((let33 (or let28 let31 let13 let14 let27 let3)))
  (let ((let34 (and let33 let33 let16 let9 let32 let15 let32)))
  (let ((let35 (or let24 let34 let17 let30)))
  (let ((let36 (and let19 let33 let32)))
  (let ((let37 (not let36)))
  (let ((let38 (=> let9 let11)))
  (let ((let39 (and let38 let37 let35)))
  (let ((let40 (=> let23 let30)))
  (let ((let41 (ite let40 let39 let26)))
  (let ((let42 (not let41)))
  (let ((let43 (=> let36 let42)))
  (let ((let44 (=> let1 let24)))
  (let ((let45 (or let6 let1)))
  (let ((let46 (or let45 let34)))
  (let ((let47 (not let28)))
  (let ((let48 (ite let34 let47 let46)))
  (let ((let49 (or let48 let44)))
  (let ((let50 (=> let18 let44)))
  (let ((let51 (= let7 let31)))
  (let ((let52 (and let4 let33 let22 let37 let3 let29)))
  (let ((let53 (ite let13 let32 let23)))
  (let ((let54 (ite let53 let52 let52)))
  (let ((let55 (and let24 let54 let51)))
  (let ((let56 (=> let54 let52)))
  (let ((let57 (and let15 let56 let20)))
  (let ((let58 (=> let57 let55)))
  (let ((let59 (ite let37 let40 let51)))
  (let ((let60 (= let56 let39)))
  (let ((let61 (= let60 let59)))
  (let ((let62 (and let6 let53)))
  (let ((let63 (=> let59 let40)))
  (let ((let64 (ite let46 let63 let36)))
  (let ((let65 (= let21 let59)))
  (let ((let66 (and let65 let36 let35 let47)))
  (let ((let67 (not let55)))
  (let ((let68 (ite let57 let65 let38)))
  (let ((let69 (and let68 let67 let66 let64 let62 let61 let58 let50 let49 let43)))
  (let ((let70 return_n3))
  (let ((let71 (as ff1 FF0)))
  (let ((let72 (= let71 let70)))
  (let ((let73 (= let72 let69)))
  (let ((let74 (as ff0 FF0)))
  (let ((let75 (= let74 let70)))
  (let ((let76 (or let72 let75)))
  (let ((let77 (and let76 let73)))
  (let ((let78 mul_n109))
  (let ((let79 (as ff52435875175126190479447740508185965837690552500527637822603658699938581184512 FF0)))
  (let ((let80 mul_n75))
  (let ((let81 (ff.mul let80 let79)))
  (let ((let82 (ff.add let81 let71)))
  (let ((let83 mul_n108))
  (let ((let84 (ff.mul let83 let82)))
  (let ((let85 (= let84 let78)))
  (let ((let86 mul_n76))
  (let ((let87 (ff.mul let86 let79)))
  (let ((let88 (ff.add let87 let71)))
  (let ((let89 mul_n107))
  (let ((let90 (ff.mul let89 let88)))
  (let ((let91 (= let90 let83)))
  (let ((let92 mul_n90))
  (let ((let93 (ff.mul let92 let79)))
  (let ((let94 (ff.add let93 let71)))
  (let ((let95 mul_n106))
  (let ((let96 (ff.mul let95 let94)))
  (let ((let97 (= let96 let89)))
  (let ((let98 mul_n67))
  (let ((let99 a_n6))
  (let ((let100 mul_n92))
  (let ((let101 (ff.mul let100 let79)))
  (let ((let102 mul_n91))
  (let ((let103 (ff.mul let102 let79)))
  (let ((let104 mul_n87))
  (let ((let105 (ff.mul let104 let79)))
  (let ((let106 mul_n77))
  (let ((let107 (ff.mul let106 let79)))
  (let ((let108 mul_n93))
  (let ((let109 mul_n48))
  (let ((let110 (ff.mul let109 let79)))
  (let ((let111 (ff.add let110 let108 let107 let105 let103 let101 let99 let98 let71)))
  (let ((let112 mul_n105))
  (let ((let113 (ff.mul let112 let111)))
  (let ((let114 (= let113 let95)))
  (let ((let115 mul_n94))
  (let ((let116 mul_n104))
  (let ((let117 (ff.mul let116 let115)))
  (let ((let118 (= let117 let112)))
  (let ((let119 mul_n64))
  (let ((let120 mul_n96))
  (let ((let121 (ff.add let120 let119)))
  (let ((let122 mul_n103))
  (let ((let123 (ff.mul let122 let121)))
  (let ((let124 (= let123 let116)))
  (let ((let125 mul_n100))
  (let ((let126 mul_n102))
  (let ((let127 (ff.mul let126 let125)))
  (let ((let128 (= let127 let122)))
  (let ((let129 mul_n86))
  (let ((let130 (ff.mul let129 let79)))
  (let ((let131 (ff.add let130 let71)))
  (let ((let132 mul_n65))
  (let ((let133 (ff.mul let132 let79)))
  (let ((let134 mul_n101))
  (let ((let135 (ff.add let134 let133 let71)))
  (let ((let136 (ff.mul let135 let131)))
  (let ((let137 (= let136 let126)))
  (let ((let138 mul_n97))
  (let ((let139 mul_n34))
  (let ((let140 (ff.mul let139 let79)))
  (let ((let141 (ff.add let110 let107 let140 let132 let138 let99 let103)))
  (let ((let142 mul_n89))
  (let ((let143 (ff.mul let142 let141)))
  (let ((let144 (= let143 let134)))
  (let ((let145 mul_n43))
  (let ((let146 (ff.mul let145 let79)))
  (let ((let147 (ff.add let146 let71)))
  (let ((let148 mul_n99))
  (let ((let149 (ff.mul let148 let147)))
  (let ((let150 (= let149 let125)))
  (let ((let151 mul_n62))
  (let ((let152 (ff.mul let151 let79)))
  (let ((let153 (ff.add let152 let71)))
  (let ((let154 mul_n98))
  (let ((let155 (ff.mul let154 let153)))
  (let ((let156 (= let155 let148)))
  (let ((let157 (ff.add let110 let107 let140 let138 let99 let103 let71)))
  (let ((let158 (ff.mul let157 let119)))
  (let ((let159 (= let158 let154)))
  (let ((let160 (ff.mul let99 let79)))
  (let ((let161 (ff.add let109 let106 let160 let102)))
  (let ((let162 (as ff2 FF0)))
  (let ((let163 (ff.mul let139 let162)))
  (let ((let164 (ff.mul let163 let161)))
  (let ((let165 (= let164 let138)))
  (let ((let166 mul_n95))
  (let ((let167 (ff.mul let166 let79)))
  (let ((let168 (ff.mul let119 let79)))
  (let ((let169 (ff.add let168 let167 let71)))
  (let ((let170 mul_n73))
  (let ((let171 (ff.mul let170 let79)))
  (let ((let172 (ff.add let171 let71)))
  (let ((let173 (ff.mul let172 let169)))
  (let ((let174 (= let173 let120)))
  (let ((let175 mul_n68))
  (let ((let176 (ff.mul let161 let175)))
  (let ((let177 (= let176 let166)))
  (let ((let178 mul_n83))
  (let ((let179 mul_n36))
  (let ((let180 (ff.mul let179 let79)))
  (let ((let181 (ff.add let180 let178 let71)))
  (let ((let182 b_n4))
  (let ((let183 mul_n8))
  (let ((let184 (ff.add let183 let182)))
  (let ((let185 (ff.mul let184 let181)))
  (let ((let186 (= let185 let115)))
  (let ((let187 (ff.mul let104 let162)))
  (let ((let188 (as ff52435875175126190479447740508185965837690552500527637822603658699938581184511 FF0)))
  (let ((let189 (ff.mul let98 let188)))
  (let ((let190 (ff.mul let100 let162)))
  (let ((let191 (ff.add let190 let189 let187)))
  (let ((let192 (ff.mul let191 let161)))
  (let ((let193 (= let192 let108)))
  (let ((let194 (ff.mul let104 let188)))
  (let ((let195 (ff.add let194 let162)))
  (let ((let196 (ff.mul let195 let98)))
  (let ((let197 (= let196 let100)))
  (let ((let198 (ff.mul let175 let79)))
  (let ((let199 (ff.add let110 let107 let198 let99 let71)))
  (let ((let200 (ff.add let168 let71)))
  (let ((let201 (ff.mul let200 let199)))
  (let ((let202 (= let201 let102)))
  (let ((let203 (ff.mul let142 let131)))
  (let ((let204 (= let203 let92)))
  (let ((let205 mul_n33))
  (let ((let206 (ff.mul let205 let79)))
  (let ((let207 (ff.add let206 let71)))
  (let ((let208 mul_n88))
  (let ((let209 (ff.mul let208 let207)))
  (let ((let210 (= let209 let142)))
  (let ((let211 (ff.add let105 let71)))
  (let ((let212 mul_n23))
  (let ((let213 f_n5))
  (let ((let214 mul_n24))
  (let ((let215 (ff.add let214 let213 let212 let79)))
  (let ((let216 (ff.mul let215 let211)))
  (let ((let217 (= let216 let208)))
  (let ((let218 mul_n82))
  (let ((let219 (ff.mul let218 let79)))
  (let ((let220 (ff.add let219 let71)))
  (let ((let221 (ff.mul let218 let220)))
  (let ((let222 (= let221 let104)))
  (let ((let223 (ff.add let109 let106 let160)))
  (let ((let224 mul_n85))
  (let ((let225 (ff.mul let224 let223)))
  (let ((let226 (= let225 let129)))
  (let ((let227 d_n1))
  (let ((let228 (ff.mul let227 let79)))
  (let ((let229 mul_n7))
  (let ((let230 (ff.mul let229 let79)))
  (let ((let231 mul_n37))
  (let ((let232 (ff.add let231 let230 let179 let228)))
  (let ((let233 (ff.mul let232 let218)))
  (let ((let234 (= let233 let224)))
  (let ((let235 (ff.add let109 let179 let79)))
  (let ((let236 mul_n22))
  (let ((let237 (ff.mul let236 let79)))
  (let ((let238 (ff.add let237 let71)))
  (let ((let239 (ff.mul let238 let235)))
  (let ((let240 (= let239 let178)))
  (let ((let241 mul_n28))
  (let ((let242 mul_n44))
  (let ((let243 (ff.add let242 let241 let146)))
  (let ((let244 mul_n81))
  (let ((let245 (ff.mul let244 let243)))
  (let ((let246 (= let245 let218)))
  (let ((let247 e_n0))
  (let ((let248 mul_n80))
  (let ((let249 (ff.mul let248 let247)))
  (let ((let250 (= let249 let244)))
  (let ((let251 mul_n79))
  (let ((let252 (ff.mul let251 let200)))
  (let ((let253 (= let252 let248)))
  (let ((let254 mul_n35))
  (let ((let255 mul_n78))
  (let ((let256 (ff.mul let255 let254)))
  (let ((let257 (= let256 let251)))
  (let ((let258 mul_n53))
  (let ((let259 (ff.mul let258 let79)))
  (let ((let260 (ff.add let259 let71)))
  (let ((let261 c_n2))
  (let ((let262 (ff.mul let261 let260)))
  (let ((let263 (= let262 let255)))
  (let ((let264 (ff.add let110 let71)))
  (let ((let265 (ff.mul let99 let162)))
  (let ((let266 (ff.mul let265 let264)))
  (let ((let267 (= let266 let106)))
  (let ((let268 mul_n71))
  (let ((let269 mul_n29))
  (let ((let270 (ff.add let269 let237 let71)))
  (let ((let271 (ff.mul let270 let268)))
  (let ((let272 (= let271 let86)))
  (let ((let273 mul_n74))
  (let ((let274 (ff.mul let273 let79)))
  (let ((let275 (ff.add let170 let274)))
  (let ((let276 (ff.mul let275 let268)))
  (let ((let277 (= let276 let80)))
  (let ((let278 (ff.add let170 let146)))
  (let ((let279 mul_n59))
  (let ((let280 (ff.mul let279 let278)))
  (let ((let281 (= let280 let273)))
  (let ((let282 (ff.mul let279 let79)))
  (let ((let283 (ff.add let282 let71)))
  (let ((let284 mul_n72))
  (let ((let285 (ff.mul let284 let283)))
  (let ((let286 (= let285 let170)))
  (let ((let287 (ff.mul let213 let79)))
  (let ((let288 (ff.add let287 let71)))
  (let ((let289 (ff.mul let182 let79)))
  (let ((let290 (ff.mul let183 let79)))
  (let ((let291 (ff.add let290 let289 let71)))
  (let ((let292 (ff.mul let291 let288)))
  (let ((let293 (= let292 let284)))
  (let ((let294 (ff.mul let231 let79)))
  (let ((let295 (ff.add let294 let229 let180 let227 let71)))
  (let ((let296 (ff.mul let213 let295)))
  (let ((let297 (= let296 let268)))
  (let ((let298 mul_n70))
  (let ((let299 mul_n39))
  (let ((let300 mul_n69))
  (let ((let301 (ff.add let300 let139 let299)))
  (let ((let302 (ff.mul let119 let301)))
  (let ((let303 (= let302 let298)))
  (let ((let304 (ff.mul let299 let79)))
  (let ((let305 (ff.add let304 let140 let98)))
  (let ((let306 (ff.add let198 let71)))
  (let ((let307 (ff.mul let306 let305)))
  (let ((let308 (= let307 let300)))
  (let ((let309 mul_n9))
  (let ((let310 mul_n45))
  (let ((let311 (ff.mul let310 let79)))
  (let ((let312 (ff.add let241 let311 let182 let309 let242 let146)))
  (let ((let313 (ff.add let180 let71)))
  (let ((let314 (ff.mul let313 let312)))
  (let ((let315 (= let314 let175)))
  (let ((let316 mul_n66))
  (let ((let317 (ff.mul let316 let153)))
  (let ((let318 (= let317 let98)))
  (let ((let319 (ff.add let133 let71)))
  (let ((let320 (ff.mul let319 let200)))
  (let ((let321 (= let320 let316)))
  (let ((let322 mul_n19))
  (let ((let323 (ff.mul let322 let79)))
  (let ((let324 mul_n20))
  (let ((let325 (ff.mul let324 let79)))
  (let ((let326 (ff.add let325 let323 let71)))
  (let ((let327 mul_n12))
  (let ((let328 (ff.mul let327 let79)))
  (let ((let329 (ff.add let328 let71)))
  (let ((let330 (ff.mul let329 let326)))
  (let ((let331 (= let330 let132)))
  (let ((let332 mul_n63))
  (let ((let333 (ff.mul let332 let109)))
  (let ((let334 (= let333 let119)))
  (let ((let335 mul_n32))
  (let ((let336 (ff.mul let335 let260)))
  (let ((let337 (= let336 let332)))
  (let ((let338 mul_n61))
  (let ((let339 (ff.mul let338 let312)))
  (let ((let340 (= let339 let151)))
  (let ((let341 mul_n60))
  (let ((let342 (ff.mul let341 let241)))
  (let ((let343 (= let342 let338)))
  (let ((let344 (ff.mul let295 let283)))
  (let ((let345 (= let344 let341)))
  (let ((let346 mul_n58))
  (let ((let347 (ff.mul let346 let109)))
  (let ((let348 (= let347 let279)))
  (let ((let349 mul_n57))
  (let ((let350 (ff.mul let349 let215)))
  (let ((let351 (= let350 let346)))
  (let ((let352 mul_n56))
  (let ((let353 (ff.mul let352 let109)))
  (let ((let354 (= let353 let349)))
  (let ((let355 mul_n55))
  (let ((let356 (ff.mul let355 let329)))
  (let ((let357 (= let356 let352)))
  (let ((let358 (ff.add let228 let71)))
  (let ((let359 mul_n54))
  (let ((let360 (ff.mul let359 let358)))
  (let ((let361 (= let360 let355)))
  (let ((let362 (ff.mul let260 let260)))
  (let ((let363 (= let362 let359)))
  (let ((let364 (ff.mul let247 let79)))
  (let ((let365 (ff.add let364 let71)))
  (let ((let366 mul_n52))
  (let ((let367 (ff.mul let366 let365)))
  (let ((let368 (= let367 let258)))
  (let ((let369 mul_n51))
  (let ((let370 (ff.mul let369 let99)))
  (let ((let371 (= let370 let366)))
  (let ((let372 mul_n50))
  (let ((let373 (ff.mul let372 let212)))
  (let ((let374 (= let373 let369)))
  (let ((let375 mul_n49))
  (let ((let376 (ff.mul let375 let236)))
  (let ((let377 (= let376 let372)))
  (let ((let378 (ff.mul let147 let109)))
  (let ((let379 (= let378 let375)))
  (let ((let380 (ff.mul let309 let79)))
  (let ((let381 (ff.add let289 let380 let71)))
  (let ((let382 mul_n47))
  (let ((let383 (ff.mul let382 let381)))
  (let ((let384 (= let383 let109)))
  (let ((let385 mul_n46))
  (let ((let386 (ff.mul let385 let326)))
  (let ((let387 (= let386 let382)))
  (let ((let388 (ff.mul let269 let79)))
  (let ((let389 (ff.add let388 let236)))
  (let ((let390 (ff.mul let389 let99)))
  (let ((let391 (= let390 let385)))
  (let ((let392 (ff.mul let309 let162)))
  (let ((let393 (ff.mul let182 let162)))
  (let ((let394 (ff.add let393 let392)))
  (let ((let395 (ff.mul let394 let243)))
  (let ((let396 (= let395 let310)))
  (let ((let397 (ff.mul let241 let79)))
  (let ((let398 (ff.add let397 let71)))
  (let ((let399 (ff.mul let145 let162)))
  (let ((let400 (ff.mul let399 let398)))
  (let ((let401 (= let400 let242)))
  (let ((let402 mul_n42))
  (let ((let403 (ff.mul let402 let215)))
  (let ((let404 (= let403 let145)))
  (let ((let405 (ff.add let160 let71)))
  (let ((let406 mul_n41))
  (let ((let407 (ff.mul let406 let405)))
  (let ((let408 (= let407 let402)))
  (let ((let409 mul_n40))
  (let ((let410 (ff.mul let409 let227)))
  (let ((let411 (= let410 let406)))
  (let ((let412 (ff.mul let270 let261)))
  (let ((let413 (= let412 let409)))
  (let ((let414 (ff.add let140 let254)))
  (let ((let415 mul_n38))
  (let ((let416 (ff.mul let415 let79)))
  (let ((let417 (ff.add let416 let71)))
  (let ((let418 (ff.mul let417 let414)))
  (let ((let419 (= let418 let299)))
  (let ((let420 (ff.mul let335 let295)))
  (let ((let421 (= let420 let415)))
  (let ((let422 (ff.mul let229 let162)))
  (let ((let423 (ff.mul let227 let162)))
  (let ((let424 (ff.add let423 let422)))
  (let ((let425 (ff.mul let424 let313)))
  (let ((let426 (= let425 let231)))
  (let ((let427 (ff.mul let288 let241)))
  (let ((let428 (= let427 let179)))
  (let ((let429 (ff.mul let322 let207)))
  (let ((let430 (= let429 let254)))
  (let ((let431 (ff.mul let207 let238)))
  (let ((let432 (= let431 let139)))
  (let ((let433 (ff.mul let335 let79)))
  (let ((let434 (ff.add let433 let71)))
  (let ((let435 (ff.mul let212 let434)))
  (let ((let436 (= let435 let205)))
  (let ((let437 mul_n31))
  (let ((let438 (ff.mul let437 let238)))
  (let ((let439 (= let438 let335)))
  (let ((let440 mul_n30))
  (let ((let441 (ff.mul let440 let322)))
  (let ((let442 (= let441 let437)))
  (let ((let443 (ff.mul let270 let398)))
  (let ((let444 (= let443 let440)))
  (let ((let445 (ff.add let287 let236)))
  (let ((let446 (ff.mul let182 let445)))
  (let ((let447 (= let446 let269)))
  (let ((let448 mul_n27))
  (let ((let449 (ff.mul let448 let212)))
  (let ((let450 (= let449 let241)))
  (let ((let451 (ff.add let228 let230 let71)))
  (let ((let452 mul_n26))
  (let ((let453 (ff.mul let452 let451)))
  (let ((let454 (= let453 let448)))
  (let ((let455 (ff.mul let212 let79)))
  (let ((let456 (ff.mul let214 let79)))
  (let ((let457 (ff.add let456 let287 let455 let162)))
  (let ((let458 mul_n25))
  (let ((let459 (ff.mul let458 let457)))
  (let ((let460 (= let459 let452)))
  (let ((let461 (ff.mul let227 let227)))
  (let ((let462 (= let461 let458)))
  (let ((let463 (ff.add let455 let71)))
  (let ((let464 (ff.mul let213 let188)))
  (let ((let465 (ff.add let464 let162)))
  (let ((let466 (ff.mul let465 let463)))
  (let ((let467 (= let466 let214)))
  (let ((let468 (ff.mul let184 let326)))
  (let ((let469 (= let468 let212)))
  (let ((let470 mul_n21))
  (let ((let471 (ff.mul let470 let291)))
  (let ((let472 (= let471 let236)))
  (let ((let473 (ff.mul let213 let326)))
  (let ((let474 (= let473 let470)))
  (let ((let475 (ff.add let247 let323)))
  (let ((let476 (ff.mul let322 let475)))
  (let ((let477 (= let476 let324)))
  (let ((let478 mul_n18))
  (let ((let479 (ff.mul let478 let261)))
  (let ((let480 (= let479 let322)))
  (let ((let481 mul_n17))
  (let ((let482 (ff.mul let481 let329)))
  (let ((let483 (= let482 let478)))
  (let ((let484 mul_n16))
  (let ((let485 (ff.mul let484 let99)))
  (let ((let486 (= let485 let481)))
  (let ((let487 mul_n15))
  (let ((let488 (ff.mul let487 let329)))
  (let ((let489 (= let488 let484)))
  (let ((let490 mul_n14))
  (let ((let491 (ff.mul let490 let184)))
  (let ((let492 (= let491 let487)))
  (let ((let493 mul_n13))
  (let ((let494 (ff.mul let493 let329)))
  (let ((let495 (= let494 let490)))
  (let ((let496 (ff.add let227 let229)))
  (let ((let497 (ff.add let182 let309)))
  (let ((let498 (ff.mul let497 let496)))
  (let ((let499 (= let498 let493)))
  (let ((let500 mul_n11))
  (let ((let501 (ff.mul let500 let405)))
  (let ((let502 (= let501 let327)))
  (let ((let503 mul_n10))
  (let ((let504 (ff.mul let503 let365)))
  (let ((let505 (= let504 let500)))
  (let ((let506 (ff.mul let288 let381)))
  (let ((let507 (= let506 let503)))
  (let ((let508 (ff.add let289 let227)))
  (let ((let509 (ff.mul let99 let508)))
  (let ((let510 (= let509 let309)))
  (let ((let511 (ff.add let289 let213)))
  (let ((let512 (ff.mul let496 let511)))
  (let ((let513 (= let512 let183)))
  (let ((let514 (ff.add let247 let228)))
  (let ((let515 (ff.mul let261 let514)))
  (let ((let516 (= let515 let229)))
  (let ((let517 (and let516 let513 let510 let507 let505 let502 let499 let495 let492 let489 let486 let483 let480 let477 let474 let472 let469 let467 let462 let460 let454 let450 let447 let444 let442 let439 let436 let432 let430 let428 let426 let421 let419 let413 let411 let408 let404 let401 let396 let391 let387 let384 let379 let377 let374 let371 let368 let363 let361 let357 let354 let351 let348 let345 let343 let340 let337 let334 let331 let321 let318 let315 let308 let303 let297 let293 let286 let281 let277 let272 let267 let263 let257 let253 let250 let246 let240 let234 let226 let222 let217 let210 let204 let202 let197 let193 let186 let177 let174 let165 let159 let156 let150 let144 let137 let128 let124 let118 let114 let97 let91 let85)))
  (let ((let518 (ite let7 let71 let74)))
  (let ((let519 (= let99 let518)))
  (let ((let520 (ite let0 let71 let74)))
  (let ((let521 (= let182 let520)))
  (let ((let522 (ite let4 let71 let74)))
  (let ((let523 (= let261 let522)))
  (let ((let524 (ite let1 let71 let74)))
  (let ((let525 (= let213 let524)))
  (let ((let526 (ite let3 let71 let74)))
  (let ((let527 (= let247 let526)))
  (let ((let528 (ite let2 let71 let74)))
  (let ((let529 (= let227 let528)))
  (let ((let530 (and let529 let527 let525 let523 let521 let519)))
  (let ((let531 (and let530 let517)))
  (let ((let532 (=> let531 let77)))
  (let ((let533 (not let532)))
  let533
))))))))))))))))))))))))))))))))))))))))))))))))))))))))))))))))))))))))))))))))))))))))))))))))))))))))))))))))))))))))))))))))))))))))))))))))))))))))))))))))))))))))))))))))))))))))))))))))))))))))))))))))))))))))))))))))))))))))))))))))))))))))))))))))))))))))))))))))))))))))))))))))))))))))))))))))))))))))))))))))))))))))))))))))))))))))))))))))))))))))))))))))))))))))))))))))))))))))))))))))))))))))))))))))))))))))))))))))))))))))))))))))))))))))))))))))))))))))))))))))))))))))))))))))))))))))))))))))))))))))))))))))))))))
)
(check-sat)
